SPARKNaCl/why3-z3/sparknacl-aes.adb_323_23_range_check_1.smt2
;; produced by z3_gnatprove.drv ;;
(set-info :smt-lib-version 2.5)
(set-info :source |VC generated by SPARK 2014|)
(set-info :category industrial)
(set-info :status unknown)
;;; generated by SMT-LIB2 driver
;;; SMT-LIB2 driver: bit-vectors, common part
;;; SMT-LIB2: integer arithmetic
(declare-sort u32 0)

(declare-const x (_ BitVec 32))

;; "to_rep"
(declare-fun to_rep (u32) (_ BitVec 32))

;; "of_rep"
(declare-fun of_rep ((_ BitVec 32)) u32)

;; "inversion_axiom"
(assert
  (forall ((x1 u32)) (! (= (of_rep (to_rep x1)) x1) :pattern ((to_rep x1)) )))

;; "range_axiom"
(assert true)

;; "coerce_axiom"
(assert
  (forall ((x1 (_ BitVec 32)))
    (! (= (to_rep (of_rep x1)) x1) :pattern ((to_rep (of_rep x1))) )))

(declare-sort map1 0)

;; "has_bounds"
(declare-fun has_bounds (map1
  Int
  Int) Bool)

;; "get"
(declare-fun get (map1
  Int) u32)

(declare-const column map1)

;; "ada___sparknacl__aes__inv_sbox__backward_map__column__aggregate_def"
(declare-fun ada___sparknacl__aes__inv_sbox__backward_map__column__aggregate_def ((_ BitVec 32)
  (_ BitVec 32)
  (_ BitVec 32)
  (_ BitVec 32)
  (_ BitVec 32)
  (_ BitVec 32)
  (_ BitVec 32)
  (_ BitVec 32)) map1)

;; "def_axiom"
(assert
  (forall ((temp___263 (_ BitVec 32)) (temp___264 (_ BitVec 32)) (temp___265 (_ BitVec 32)) (temp___266 (_ BitVec 32)) (temp___267 (_ BitVec 32)) (temp___268 (_ BitVec 32)) (temp___269 (_ BitVec 32)) (temp___270 (_ BitVec 32)))
    (let ((temp___271 (ada___sparknacl__aes__inv_sbox__backward_map__column__aggregate_def
                        temp___263
                        temp___264
                        temp___265
                        temp___266
                        temp___267
                        temp___268
                        temp___269
                        temp___270)))
      (and
        (and
          (and
            (= (to_rep (get temp___271 0)) temp___263)
            (= (to_rep (get temp___271 1)) temp___264))
          (and
            (and
              (and
                (= (to_rep (get temp___271 2)) temp___265)
                (= (to_rep (get temp___271 3)) temp___266))
              (= (to_rep (get temp___271 4)) temp___267))
            (and
              (and
                (= (to_rep (get temp___271 5)) temp___268)
                (= (to_rep (get temp___271 6)) temp___269))
              (= (to_rep (get temp___271 7)) temp___270))))
        (=>
          (and
            (and (and (<= 0 0) (<= 0 7)) (and (<= 0 1) (<= 1 7)))
            (and
              (and
                (and (and (<= 0 2) (<= 2 7)) (and (<= 0 3) (<= 3 7)))
                (and (<= 0 4) (<= 4 7)))
              (and
                (and (and (<= 0 5) (<= 5 7)) (and (<= 0 6) (<= 6 7)))
                (and (<= 0 7) (<= 7 7)))))
          (has_bounds temp___271 0 7))))))

;; "Assume"
(assert true)

(declare-const temp___1849 map1)

;; "H"
(assert (= (to_rep (get temp___1849 0)) #x01010101))

;; "H"
(assert (= (to_rep (get temp___1849 1)) #xBCBCBCBC))

;; "H"
(assert (= (to_rep (get temp___1849 2)) #x5D5D5D5D))

;; "H"
(assert (= (to_rep (get temp___1849 3)) #x0C0C0C0C))

;; "H"
(assert (= (to_rep (get temp___1849 4)) #x1F1F1F1F))

;; "H"
(assert (= (to_rep (get temp___1849 5)) #xBBBBBBBB))

;; "H"
(assert (= (to_rep (get temp___1849 6)) #xF1F1F1F1))

;; "H"
(assert (= (to_rep (get temp___1849 7)) #x84848484))

;; "H"
(assert (has_bounds temp___1849 0 7))

;; "H"
(assert
  (= temp___1849 (ada___sparknacl__aes__inv_sbox__backward_map__column__aggregate_def
                   #x01010101
                   #xBCBCBCBC
                   #x5D5D5D5D
                   #x0C0C0C0C
                   #x1F1F1F1F
                   #xBBBBBBBB
                   #xF1F1F1F1
                   #x84848484)))

;; "ada___sparknacl__aes__inv_sbox__backward_map__column__aggregate_def'result'unused"
(define-fun ada___sparknacl__aes__inv_sbox__backward_map__column__aggregate_defqtresultqtunused 
  () map1
  temp___1849)

;; "ada___sparknacl__aes__inv_sbox__backward_map__column__assume'unused"
(define-fun ada___sparknacl__aes__inv_sbox__backward_map__column__assumeqtunused 
  () map1
  temp___1849)

;; "Assume"
(assert (= temp___1849 column))

;; "Assume"
(assert (has_bounds column 0 7))

;; "o"
(define-fun o () (_ BitVec 32)
  (bvand x #x01010101))

;; "bw_and'result'unused"
(define-fun bw_andqtresultqtunused () (_ BitVec 32)
  o)

;; Goal "def'vc"
;; File "sparknacl-aes.adb", line 294, characters 0-0
(assert
  (not true))

(check-sat)
